%%%mzn-stat: initTime=0.044600773
%%%mzn-stat: objective=229
%%%mzn-stat: nodes=14715
%%%mzn-stat: restarts=1
%%%mzn-stat: peakDepth=2590
%%%mzn-stat: solveTime=15.748971696
%%%mzn-stat: variables=4290
%%%mzn-stat: propagators=3802
%%%mzn-stat: failures=10009
%%%mzn-stat: propagations=1333735
%%%mzn-stat: nogoods=10009
%%%mzn-stat: AverageConflictSize=42.31082026176441
%%%mzn-stat: NumUnitNogoodsLearned=165
%%%mzn-stat: AverageLearnedNogoodLength=315.0510540513538
%%%mzn-stat: AverageBacktrackAmount=0
%%%mzn-stat: AverageLbd=116.67759016884804
%%%mzn-stat-end
maxleg = 229;
succ = array1d(1..150,[28, 138, 133, 71, 75, 116, 95, 129, 108, 122, 38, 31, 12, 81, 148, 111, 47, 16, 79, 143, 103, 72, 80, 132, 100, 105, 22, 84, 99, 128, 113, 110, 118, 32, 24, 98, 59, 6, 17, 23, 76, 43, 14, 136, 85, 114, 34, 149, 11, 13, 18, 25, 119, 134, 40, 39, 60, 130, 124, 68, 10, 115, 66, 37, 63, 144, 137, 27, 83, 9, 117, 141, 44, 5, 77, 88, 147, 70, 49, 19, 20, 73, 93, 87, 3, 82, 55, 26, 102, 139, 131, 29, 7, 107, 140, 135, 45, 120, 41, 51, 52, 48, 92, 97, 104, 67, 2, 123, 126, 61, 57, 78, 36, 53, 65, 91, 8, 109, 125, 127, 58, 42, 62, 21, 35, 86, 94, 33, 56, 46, 142, 101, 96, 30, 89, 106, 64, 1, 146, 15, 54, 112, 90, 145, 4, 121, 150, 50, 74, 69]);
% time elapsed: 25.21 s
----------
%%%mzn-stat: initTime=0.044600773
%%%mzn-stat: objective=166
%%%mzn-stat: nodes=19533
%%%mzn-stat: restarts=1
%%%mzn-stat: peakDepth=2590
%%%mzn-stat: solveTime=19.720209486
%%%mzn-stat: variables=4290
%%%mzn-stat: propagators=3802
%%%mzn-stat: failures=12592
%%%mzn-stat: propagations=1617735
%%%mzn-stat: nogoods=12592
%%%mzn-stat: AverageConflictSize=50.3617376111817
%%%mzn-stat: NumUnitNogoodsLearned=165
%%%mzn-stat: AverageLearnedNogoodLength=301.0757623888183
%%%mzn-stat: AverageBacktrackAmount=0
%%%mzn-stat: AverageLbd=107.27239517153748
%%%mzn-stat-end
maxleg = 166;
succ = array1d(1..150,[28, 138, 133, 71, 75, 38, 95, 129, 144, 122, 63, 31, 84, 87, 140, 111, 56, 16, 79, 143, 103, 72, 52, 132, 100, 105, 22, 113, 106, 128, 101, 110, 118, 32, 24, 98, 59, 15, 47, 23, 99, 43, 14, 82, 74, 114, 34, 149, 11, 13, 18, 80, 35, 148, 40, 39, 60, 130, 124, 68, 10, 115, 9, 136, 66, 116, 137, 27, 83, 108, 117, 141, 67, 5, 77, 88, 147, 70, 49, 19, 20, 92, 76, 119, 3, 41, 55, 57, 102, 139, 131, 29, 7, 12, 134, 97, 45, 120, 44, 51, 50, 48, 107, 150, 96, 73, 2, 123, 126, 61, 93, 78, 36, 53, 6, 91, 8, 109, 125, 127, 58, 65, 62, 21, 90, 86, 94, 33, 17, 46, 142, 81, 104, 30, 89, 37, 64, 1, 146, 26, 54, 112, 42, 145, 4, 121, 135, 25, 85, 69]);
% time elapsed: 29.17 s
----------
==========
% time elapsed: 29.19 s
%%%mzn-stat: initTime=0.044600773
%%%mzn-stat: objective=166
%%%mzn-stat: nodes=19533
%%%mzn-stat: restarts=1
%%%mzn-stat: peakDepth=2590
%%%mzn-stat: solveTime=19.720214679
%%%mzn-stat: variables=4290
%%%mzn-stat: propagators=3802
%%%mzn-stat: failures=12592
%%%mzn-stat: propagations=1617735
%%%mzn-stat: nogoods=12592
%%%mzn-stat: AverageConflictSize=50.3617376111817
%%%mzn-stat: NumUnitNogoodsLearned=165
%%%mzn-stat: AverageLearnedNogoodLength=301.0757623888183
%%%mzn-stat: AverageBacktrackAmount=0
%%%mzn-stat: AverageLbd=107.27239517153748
%%%mzn-stat-end
